NAME 
ROWS
 N  OBJ
 G  R0      
 G  R1      
 G  R2      
 G  R3      
 G  R4      
 G  R5      
COLUMNS
    x0        OBJ       1
    x0        R0        1
    x0        R4        1
    x0        R5        1
    x1        OBJ       1
    x1        R1        1
    x1        R3        1
    x1        R5        1
    x2        OBJ       1
    x2        R2        1
    x2        R3        1
    x2        R4        1
    x3        OBJ       1
    x3        R1        1
    x3        R2        1
    x3        R3        1
    x4        OBJ       1
    x4        R0        1
    x4        R2        1
    x4        R4        1
    x5        OBJ       1
    x5        R0        1
    x5        R1        1
    x5        R5        1
RHS
    RHS1      R0        1
    RHS1      R1        1
    RHS1      R2        1
    RHS1      R3        1
    RHS1      R4        1
    RHS1      R5        1
BOUNDS
 UP BND1      x0        1
 UP BND1      x1        1
 UP BND1      x2        1
 UP BND1      x3        1
 UP BND1      x4        1
 UP BND1      x5        1
ENDATA
